# Solution for model continuous_rest_k_medians
# Objective value = 14143
x[0,0] 0
x[0,1] 1
x[1,0] 0
x[1,1] 1
x[2,0] 0
x[2,1] 1
x[3,0] 1
x[3,1] 0
x[4,0] 1
x[4,1] 0
x[5,0] 0
x[5,1] 1
x[6,0] 0
x[6,1] 1
x[7,0] 0
x[7,1] 1
x[8,0] 0
x[8,1] 1
x[9,0] 0
x[9,1] 1
x[10,0] 0
x[10,1] 1
x[11,0] 1
x[11,1] 0
x[12,0] 0
x[12,1] 1
x[13,0] 0
x[13,1] 1
x[14,0] 0
x[14,1] 1
x[15,0] 0
x[15,1] 1
x[16,0] 0
x[16,1] 1
x[17,0] 0
x[17,1] 1
x[18,0] 1
x[18,1] 0
x[19,0] 0
x[19,1] 1
x[20,0] 1
x[20,1] 0
x[21,0] 1
x[21,1] 0
x[22,0] 1
x[22,1] 0
x[23,0] 0
x[23,1] 1
x[24,0] 0
x[24,1] 1
x[25,0] 1
x[25,1] 0
x[26,0] 0
x[26,1] 1
x[27,0] 0
x[27,1] 1
x[28,0] 0
x[28,1] 1
x[29,0] 0
x[29,1] 1
x[30,0] 0
x[30,1] 1
x[31,0] 0
x[31,1] 1
x[32,0] 1
x[32,1] 0
x[33,0] 1
x[33,1] 0
x[34,0] 1
x[34,1] 0
x[35,0] 1
x[35,1] 0
x[36,0] 1
x[36,1] 0
x[37,0] 0
x[37,1] 1
x[38,0] 0
x[38,1] 1
x[39,0] 0
x[39,1] 1
x[40,0] 0
x[40,1] 1
x[41,0] 0
x[41,1] 1
x[42,0] 0
x[42,1] 1
x[43,0] 0
x[43,1] 1
x[44,0] 0
x[44,1] 1
x[45,0] 0
x[45,1] 1
x[46,0] 0
x[46,1] 1
x[47,0] 0
x[47,1] 1
x[48,0] 0
x[48,1] 1
x[49,0] 0
x[49,1] 1
x[50,0] 0
x[50,1] 1
x[51,0] 0
x[51,1] 1
x[52,0] 0
x[52,1] 1
x[53,0] 0
x[53,1] 1
x[54,0] 0
x[54,1] 1
x[55,0] 0
x[55,1] 1
x[56,0] 0
x[56,1] 1
x[57,0] 1
x[57,1] 0
x[58,0] 1
x[58,1] 0
x[59,0] 0
x[59,1] 1
x[60,0] 1
x[60,1] 0
x[61,0] 0
x[61,1] 1
x[62,0] 0
x[62,1] 1
x[63,0] 0
x[63,1] 1
x[64,0] 0
x[64,1] 1
x[65,0] 0
x[65,1] 1
x[66,0] 0
x[66,1] 1
x[67,0] 0
x[67,1] 1
x[68,0] 1
x[68,1] 0
x[69,0] 0
x[69,1] 1
x[70,0] 1
x[70,1] 0
x[71,0] 0
x[71,1] 1
x[72,0] 0
x[72,1] 1
x[73,0] 0
x[73,1] 1
x[74,0] 1
x[74,1] 0
x[75,0] 0
x[75,1] 1
x[76,0] 0
x[76,1] 1
x[77,0] 0
x[77,1] 1
x[78,0] 0
x[78,1] 1
x[79,0] 1
x[79,1] 0
x[80,0] 1
x[80,1] 0
x[81,0] 1
x[81,1] 0
x[82,0] 1
x[82,1] 0
x[83,0] 0
x[83,1] 1
x[84,0] 0
x[84,1] 1
x[85,0] 0
x[85,1] 1
x[86,0] 0
x[86,1] 1
x[87,0] 0
x[87,1] 1
x[88,0] 0
x[88,1] 1
x[89,0] 0
x[89,1] 1
x[90,0] 0
x[90,1] 1
x[91,0] 0
x[91,1] 1
x[92,0] 0
x[92,1] 1
x[93,0] 0
x[93,1] 1
x[94,0] 0
x[94,1] 1
x[95,0] 0
x[95,1] 1
x[96,0] 0
x[96,1] 1
x[97,0] 0
x[97,1] 1
x[98,0] 0
x[98,1] 1
x[99,0] 0
x[99,1] 1
x[100,0] 0
x[100,1] 1
x[101,0] 0
x[101,1] 1
x[102,0] 0
x[102,1] 1
x[103,0] 0
x[103,1] 1
x[104,0] 1
x[104,1] 0
x[105,0] 1
x[105,1] 0
x[106,0] 0
x[106,1] 1
x[107,0] 0
x[107,1] 1
x[108,0] 0
x[108,1] 1
x[109,0] 1
x[109,1] 0
x[110,0] 1
x[110,1] 0
x[111,0] 1
x[111,1] 0
x[112,0] 0
x[112,1] 1
x[113,0] 1
x[113,1] 0
x[114,0] 0
x[114,1] 1
x[115,0] 1
x[115,1] 0
x[116,0] 1
x[116,1] 0
x[117,0] 1
x[117,1] 0
x[118,0] 1
x[118,1] 0
x[119,0] 1
x[119,1] 0
x[120,0] 1
x[120,1] 0
x[121,0] 1
x[121,1] 0
x[122,0] 1
x[122,1] 0
x[123,0] 1
x[123,1] 0
x[124,0] 0
x[124,1] 1
x[125,0] 1
x[125,1] 0
x[126,0] 0
x[126,1] 1
x[127,0] 1
x[127,1] 0
x[128,0] 0
x[128,1] 1
x[129,0] 0
x[129,1] 1
x[130,0] 0
x[130,1] 1
x[131,0] 1
x[131,1] 0
x[132,0] 0
x[132,1] 1
x[133,0] 1
x[133,1] 0
x[134,0] 1
x[134,1] 0
x[135,0] 1
x[135,1] 0
x[136,0] 1
x[136,1] 0
x[137,0] 1
x[137,1] 0
x[138,0] 0
x[138,1] 1
x[139,0] 0
x[139,1] 1
x[140,0] 0
x[140,1] 1
x[141,0] 0
x[141,1] 1
x[142,0] 1
x[142,1] 0
x[143,0] 1
x[143,1] 0
x[144,0] 1
x[144,1] 0
x[145,0] 1
x[145,1] 0
x[146,0] 1
x[146,1] 0
x[147,0] 1
x[147,1] 0
x[148,0] 1
x[148,1] 0
x[149,0] 1
x[149,1] 0
x[150,0] 1
x[150,1] 0
x[151,0] 1
x[151,1] 0
x[152,0] 1
x[152,1] 0
x[153,0] 1
x[153,1] 0
x[154,0] 1
x[154,1] 0
x[155,0] 0
x[155,1] 1
x[156,0] 0
x[156,1] 1
x[157,0] 0
x[157,1] 1
x[158,0] 0
x[158,1] 1
x[159,0] 0
x[159,1] 1
x[160,0] 0
x[160,1] 1
x[161,0] 0
x[161,1] 1
x[162,0] 0
x[162,1] 1
x[163,0] 0
x[163,1] 1
x[164,0] 0
x[164,1] 1
x[165,0] 0
x[165,1] 1
x[166,0] 0
x[166,1] 1
x[167,0] 0
x[167,1] 1
x[168,0] 0
x[168,1] 1
x[169,0] 0
x[169,1] 1
x[170,0] 0
x[170,1] 1
x[171,0] 0
x[171,1] 1
x[172,0] 0
x[172,1] 1
x[173,0] 0
x[173,1] 1
x[174,0] 0
x[174,1] 1
x[175,0] 1
x[175,1] 0
x[176,0] 1
x[176,1] 0
x[177,0] 1
x[177,1] 0
x[178,0] 0
x[178,1] 1
x[179,0] 1
x[179,1] 0
x[180,0] 1
x[180,1] 0
x[181,0] 1
x[181,1] 0
x[182,0] 1
x[182,1] 0
x[183,0] 1
x[183,1] 0
x[184,0] 1
x[184,1] 0
x[185,0] 1
x[185,1] 0
x[186,0] 1
x[186,1] 0
x[187,0] 1
x[187,1] 0
x[188,0] 1
x[188,1] 0
x[189,0] 0
x[189,1] 1
x[190,0] 0
x[190,1] 1
x[191,0] 1
x[191,1] 0
x[192,0] 1
x[192,1] 0
x[193,0] 1
x[193,1] 0
x[194,0] 1
x[194,1] 0
x[195,0] 1
x[195,1] 0
x[196,0] 1
x[196,1] 0
x[197,0] 1
x[197,1] 0
x[198,0] 1
x[198,1] 0
x[199,0] 1
x[199,1] 0
x[200,0] 1
x[200,1] 0
x[201,0] 1
x[201,1] 0
x[202,0] 1
x[202,1] 0
x[203,0] 1
x[203,1] 0
x[204,0] 1
x[204,1] 0
x[205,0] 1
x[205,1] 0
x[206,0] 1
x[206,1] 0
x[207,0] 1
x[207,1] 0
x[208,0] 1
x[208,1] 0
x[209,0] 1
x[209,1] 0
x[210,0] 1
x[210,1] 0
x[211,0] 1
x[211,1] 0
x[212,0] 1
x[212,1] 0
x[213,0] 1
x[213,1] 0
x[214,0] 1
x[214,1] 0
x[215,0] 1
x[215,1] 0
x[216,0] 1
x[216,1] 0
x[217,0] 1
x[217,1] 0
x[218,0] 1
x[218,1] 0
x[219,0] 1
x[219,1] 0
x[220,0] 1
x[220,1] 0
x[221,0] 0
x[221,1] 1
x[222,0] 1
x[222,1] 0
x[223,0] 1
x[223,1] 0
x[224,0] 1
x[224,1] 0
x[225,0] 1
x[225,1] 0
x[226,0] 1
x[226,1] 0
x[227,0] 1
x[227,1] 0
x[228,0] 1
x[228,1] 0
x[229,0] 1
x[229,1] 0
x[230,0] 1
x[230,1] 0
x[231,0] 1
x[231,1] 0
x[232,0] 1
x[232,1] 0
x[233,0] 1
x[233,1] 0
x[234,0] 1
x[234,1] 0
x[235,0] 1
x[235,1] 0
x[236,0] 1
x[236,1] 0
x[237,0] 1
x[237,1] 0
x[238,0] 1
x[238,1] 0
x[239,0] 1
x[239,1] 0
x[240,0] 1
x[240,1] 0
x[241,0] 1
x[241,1] 0
x[242,0] 1
x[242,1] 0
x[243,0] 1
x[243,1] 0
x[244,0] 1
x[244,1] 0
x[245,0] 1
x[245,1] 0
x[246,0] 1
x[246,1] 0
x[247,0] 0
x[247,1] 1
x[248,0] 0
x[248,1] 1
x[249,0] 0
x[249,1] 1
x[250,0] 0
x[250,1] 1
x[251,0] 0
x[251,1] 1
x[252,0] 0
x[252,1] 1
x[253,0] 0
x[253,1] 1
x[254,0] 0
x[254,1] 1
x[255,0] 0
x[255,1] 1
x[256,0] 0
x[256,1] 1
x[257,0] 0
x[257,1] 1
x[258,0] 0
x[258,1] 1
x[259,0] 1
x[259,1] 0
x[260,0] 0
x[260,1] 1
x[261,0] 0
x[261,1] 1
x[262,0] 0
x[262,1] 1
x[263,0] 0
x[263,1] 1
x[264,0] 0
x[264,1] 1
x[265,0] 0
x[265,1] 1
x[266,0] 0
x[266,1] 1
x[267,0] 0
x[267,1] 1
x[268,0] 0
x[268,1] 1
x[269,0] 1
x[269,1] 0
x[270,0] 1
x[270,1] 0
x[271,0] 1
x[271,1] 0
x[272,0] 1
x[272,1] 0
x[273,0] 0
x[273,1] 1
x[274,0] 1
x[274,1] 0
x[275,0] 1
x[275,1] 0
x[276,0] 1
x[276,1] 0
x[277,0] 1
x[277,1] 0
x[278,0] 0
x[278,1] 1
x[279,0] 1
x[279,1] 0
x[280,0] 0
x[280,1] 1
x[281,0] 0
x[281,1] 1
x[282,0] 0
x[282,1] 1
x[283,0] 0
x[283,1] 1
x[284,0] 1
x[284,1] 0
x[285,0] 1
x[285,1] 0
x[286,0] 0
x[286,1] 1
x[287,0] 1
x[287,1] 0
x[288,0] 1
x[288,1] 0
x[289,0] 1
x[289,1] 0
x[290,0] 1
x[290,1] 0
x[291,0] 1
x[291,1] 0
x[292,0] 1
x[292,1] 0
x[293,0] 1
x[293,1] 0
x[294,0] 1
x[294,1] 0
x[295,0] 0
x[295,1] 1
x[296,0] 1
x[296,1] 0
x[297,0] 1
x[297,1] 0
x[298,0] 1
x[298,1] 0
x[299,0] 1
x[299,1] 0
x[300,0] 1
x[300,1] 0
x[301,0] 1
x[301,1] 0
x[302,0] 1
x[302,1] 0
x[303,0] 1
x[303,1] 0
x[304,0] 1
x[304,1] 0
x[305,0] 1
x[305,1] 0
x[306,0] 1
x[306,1] 0
x[307,0] 1
x[307,1] 0
x[308,0] 1
x[308,1] 0
x[309,0] 0
x[309,1] 1
x[310,0] 0
x[310,1] 1
x[311,0] 1
x[311,1] 0
x[312,0] 0
x[312,1] 1
x[313,0] 0
x[313,1] 1
x[314,0] 0
x[314,1] 1
x[315,0] 0
x[315,1] 1
x[316,0] 0
x[316,1] 1
x[317,0] 0
x[317,1] 1
x[318,0] 0
x[318,1] 1
x[319,0] 0
x[319,1] 1
x[320,0] 0
x[320,1] 1
x[321,0] 0
x[321,1] 1
x[322,0] 0
x[322,1] 1
x[323,0] 0
x[323,1] 1
x[324,0] 0
x[324,1] 1
x[325,0] 0
x[325,1] 1
x[326,0] 0
x[326,1] 1
x[327,0] 0
x[327,1] 1
x[328,0] 0
x[328,1] 1
x[329,0] 1
x[329,1] 0
x[330,0] 1
x[330,1] 0
x[331,0] 0
x[331,1] 1
x[332,0] 1
x[332,1] 0
x[333,0] 1
x[333,1] 0
x[334,0] 1
x[334,1] 0
x[335,0] 1
x[335,1] 0
x[336,0] 0
x[336,1] 1
x[337,0] 0
x[337,1] 1
x[338,0] 1
x[338,1] 0
x[339,0] 1
x[339,1] 0
x[340,0] 1
x[340,1] 0
x[341,0] 1
x[341,1] 0
x[342,0] 1
x[342,1] 0
x[343,0] 1
x[343,1] 0
x[344,0] 1
x[344,1] 0
x[345,0] 1
x[345,1] 0
x[346,0] 1
x[346,1] 0
x[347,0] 1
x[347,1] 0
x[348,0] 1
x[348,1] 0
x[349,0] 1
x[349,1] 0
x[350,0] 0
x[350,1] 1
x[351,0] 0
x[351,1] 1
x[352,0] 0
x[352,1] 1
x[353,0] 1
x[353,1] 0
x[354,0] 1
x[354,1] 0
x[355,0] 1
x[355,1] 0
x[356,0] 1
x[356,1] 0
x[357,0] 1
x[357,1] 0
x[358,0] 1
x[358,1] 0
x[359,0] 1
x[359,1] 0
x[360,0] 1
x[360,1] 0
x[361,0] 1
x[361,1] 0
x[362,0] 1
x[362,1] 0
x[363,0] 1
x[363,1] 0
x[364,0] 1
x[364,1] 0
x[365,0] 1
x[365,1] 0
x[366,0] 1
x[366,1] 0
x[367,0] 1
x[367,1] 0
x[368,0] 1
x[368,1] 0
x[369,0] 1
x[369,1] 0
x[370,0] 1
x[370,1] 0
x[371,0] 1
x[371,1] 0
x[372,0] 1
x[372,1] 0
x[373,0] 1
x[373,1] 0
x[374,0] 1
x[374,1] 0
x[375,0] 1
x[375,1] 0
x[376,0] 1
x[376,1] 0
x[377,0] 1
x[377,1] 0
x[378,0] 1
x[378,1] 0
x[379,0] 1
x[379,1] 0
x[380,0] 1
x[380,1] 0
x[381,0] 1
x[381,1] 0
x[382,0] 1
x[382,1] 0
x[383,0] 1
x[383,1] 0
x[384,0] 1
x[384,1] 0
x[385,0] 1
x[385,1] 0
x[386,0] 1
x[386,1] 0
x[387,0] 1
x[387,1] 0
x[388,0] 1
x[388,1] 0
x[389,0] 1
x[389,1] 0
x[390,0] 0
x[390,1] 1
x[391,0] 0
x[391,1] 1
x[392,0] 0
x[392,1] 1
x[393,0] 1
x[393,1] 0
x[394,0] 0
x[394,1] 1
x[395,0] 0
x[395,1] 1
x[396,0] 1
x[396,1] 0
x[397,0] 0
x[397,1] 1
x[398,0] 1
x[398,1] 0
x[399,0] 0
x[399,1] 1
x[400,0] 0
x[400,1] 1
x[401,0] 1
x[401,1] 0
x[402,0] 1
x[402,1] 0
x[403,0] 1
x[403,1] 0
x[404,0] 0
x[404,1] 1
x[405,0] 0
x[405,1] 1
x[406,0] 0
x[406,1] 1
x[407,0] 0
x[407,1] 1
x[408,0] 0
x[408,1] 1
x[409,0] 0
x[409,1] 1
x[410,0] 0
x[410,1] 1
x[411,0] 0
x[411,1] 1
x[412,0] 0
x[412,1] 1
x[413,0] 0
x[413,1] 1
x[414,0] 0
x[414,1] 1
x[415,0] 0
x[415,1] 1
x[416,0] 0
x[416,1] 1
x[417,0] 0
x[417,1] 1
x[418,0] 0
x[418,1] 1
x[419,0] 0
x[419,1] 1
x[420,0] 0
x[420,1] 1
x[421,0] 0
x[421,1] 1
x[422,0] 0
x[422,1] 1
x[423,0] 0
x[423,1] 1
x[424,0] 0
x[424,1] 1
x[425,0] 0
x[425,1] 1
x[426,0] 0
x[426,1] 1
x[427,0] 0
x[427,1] 1
x[428,0] 0
x[428,1] 1
x[429,0] 0
x[429,1] 1
x[430,0] 0
x[430,1] 1
x[431,0] 0
x[431,1] 1
x[432,0] 0
x[432,1] 1
x[433,0] 0
x[433,1] 1
x[434,0] 0
x[434,1] 1
x[435,0] 0
x[435,1] 1
x[436,0] 0
x[436,1] 1
x[437,0] 0
x[437,1] 1
x[438,0] 0
x[438,1] 1
x[439,0] 0
x[439,1] 1
x[440,0] 0
x[440,1] 1
x[441,0] 0
x[441,1] 1
x[442,0] 0
x[442,1] 1
x[443,0] 0
x[443,1] 1
x[444,0] 0
x[444,1] 1
x[445,0] 0
x[445,1] 1
x[446,0] 0
x[446,1] 1
x[447,0] 0
x[447,1] 1
x[448,0] 0
x[448,1] 1
x[449,0] 0
x[449,1] 1
x[450,0] 0
x[450,1] 1
x[451,0] 0
x[451,1] 1
x[452,0] 0
x[452,1] 1
x[453,0] 0
x[453,1] 1
x[454,0] 0
x[454,1] 1
x[455,0] 0
x[455,1] 1
x[456,0] 0
x[456,1] 1
x[457,0] 0
x[457,1] 1
x[458,0] 0
x[458,1] 1
x[459,0] 0
x[459,1] 1
x[460,0] 0
x[460,1] 1
x[461,0] 0
x[461,1] 1
x[462,0] 0
x[462,1] 1
x[463,0] 1
x[463,1] 0
x[464,0] 0
x[464,1] 1
x[465,0] 0
x[465,1] 1
x[466,0] 0
x[466,1] 1
x[467,0] 0
x[467,1] 1
x[468,0] 0
x[468,1] 1
x[469,0] 0
x[469,1] 1
x[470,0] 0
x[470,1] 1
x[471,0] 0
x[471,1] 1
x[472,0] 0
x[472,1] 1
x[473,0] 0
x[473,1] 1
x[474,0] 0
x[474,1] 1
x[475,0] 0
x[475,1] 1
x[476,0] 0
x[476,1] 1
x[477,0] 0
x[477,1] 1
x[478,0] 0
x[478,1] 1
x[479,0] 0
x[479,1] 1
x[480,0] 0
x[480,1] 1
x[481,0] 0
x[481,1] 1
x[482,0] 1
x[482,1] 0
x[483,0] 1
x[483,1] 0
x[484,0] 0
x[484,1] 1
z[0,0,-1] 0
z[0,0,0] 1
z[0,0,1] 0
z[0,1,-1] 0
z[0,1,0] 1
z[0,1,1] 0
z[1,0,-1] 1
z[1,0,0] 0
z[1,0,1] 0
z[1,1,-1] 0
z[1,1,0] 1
z[1,1,1] 0
z[2,0,-1] 1
z[2,0,0] 0
z[2,0,1] 0
z[2,1,-1] 0
z[2,1,0] 1
z[2,1,1] 0
z[3,0,-1] 0
z[3,0,0] 1
z[3,0,1] 0
z[3,1,-1] 0
z[3,1,0] 1
z[3,1,1] 0
z[4,0,-1] 1
z[4,0,0] 0
z[4,0,1] 0
z[4,1,-1] 0
z[4,1,0] 1
z[4,1,1] 0
z[5,0,-1] 0
z[5,0,0] 1
z[5,0,1] 0
z[5,1,-1] 1
z[5,1,0] 0
z[5,1,1] 0
z[6,0,-1] 1
z[6,0,0] 0
z[6,0,1] 0
z[6,1,-1] 0
z[6,1,0] 1
z[6,1,1] 0
z[7,0,-1] 1
z[7,0,0] 0
z[7,0,1] 0
z[7,1,-1] 0
z[7,1,0] 1
z[7,1,1] 0
z[8,0,-1] 0
z[8,0,0] 1
z[8,0,1] 0
z[8,1,-1] 0
z[8,1,0] 1
z[8,1,1] 0
z[9,0,-1] 1
z[9,0,0] 0
z[9,0,1] 0
z[9,1,-1] 0
z[9,1,0] 1
z[9,1,1] 0
z[10,0,-1] 0
z[10,0,0] 1
z[10,0,1] 0
z[10,1,-1] 1
z[10,1,0] 0
z[10,1,1] 0
z[11,0,-1] 1
z[11,0,0] 0
z[11,0,1] 0
z[11,1,-1] 0
z[11,1,0] 1
z[11,1,1] 0
z[12,0,-1] 0
z[12,0,0] 0
z[12,0,1] 1
z[12,1,-1] 0
z[12,1,0] 1
z[12,1,1] 0
z[13,0,-1] 1
z[13,0,0] 0
z[13,0,1] 0
z[13,1,-1] 0
z[13,1,0] 1
z[13,1,1] 0
z[14,0,-1] 0
z[14,0,0] 0
z[14,0,1] 1
z[14,1,-1] 1
z[14,1,0] 0
z[14,1,1] 0
z[15,0,-1] 0
z[15,0,0] 0
z[15,0,1] 1
z[15,1,-1] 0
z[15,1,0] 1
z[15,1,1] 0
z[16,0,-1] 1
z[16,0,0] 0
z[16,0,1] 0
z[16,1,-1] 0
z[16,1,0] 1
z[16,1,1] 0
z[17,0,-1] 0
z[17,0,0] 0
z[17,0,1] 1
z[17,1,-1] 1
z[17,1,0] 0
z[17,1,1] 0
z[18,0,-1] 1
z[18,0,0] 0
z[18,0,1] 0
z[18,1,-1] 0
z[18,1,0] 1
z[18,1,1] 0
z[19,0,-1] 0
z[19,0,0] 1
z[19,0,1] 0
z[19,1,-1] 1
z[19,1,0] 0
z[19,1,1] 0
z[20,0,-1] 0
z[20,0,0] 0
z[20,0,1] 1
z[20,1,-1] 1
z[20,1,0] 0
z[20,1,1] 0
W[0,0,-1] 149
W[0,0,0] 292
W[0,0,1] 67
W[0,1,-1] 241
W[0,1,0] 238
W[0,1,1] 183
W[1,0,-1] 308
W[1,0,0] 144
W[1,0,1] 56
W[1,1,-1] 260
W[1,1,0] 196
W[1,1,1] 206
W[2,0,-1] 343
W[2,0,0] 117
W[2,0,1] 48
W[2,1,-1] 144
W[2,1,0] 299
W[2,1,1] 219
W[3,0,-1] 240
W[3,0,0] 199
W[3,0,1] 69
W[3,1,-1] 217
W[3,1,0] 233
W[3,1,1] 212
W[4,0,-1] 406
W[4,0,0] 70
W[4,0,1] 32
W[4,1,-1] 143
W[4,1,0] 306
W[4,1,1] 213
W[5,0,-1] 110
W[5,0,0] 325
W[5,0,1] 73
W[5,1,-1] 424
W[5,1,0] 83
W[5,1,1] 155
W[6,0,-1] 289
W[6,0,0] 125
W[6,0,1] 94
W[6,1,-1] 244
W[6,1,0] 192
W[6,1,1] 226
W[7,0,-1] 327
W[7,0,0] 104
W[7,0,1] 77
W[7,1,-1] 125
W[7,1,0] 276
W[7,1,1] 261
W[8,0,-1] 230
W[8,0,0] 154
W[8,0,1] 124
W[8,1,-1] 212
W[8,1,0] 198
W[8,1,1] 252
W[9,0,-1] 400
W[9,0,0] 56
W[9,0,1] 52
W[9,1,-1] 120
W[9,1,0] 272
W[9,1,1] 270
W[10,0,-1] 88
W[10,0,0] 274
W[10,0,1] 146
W[10,1,-1] 407
W[10,1,0] 102
W[10,1,1] 153
W[11,0,-1] 263
W[11,0,0] 45
W[11,0,1] 200
W[11,1,-1] 122
W[11,1,0] 254
W[11,1,1] 286
W[12,0,-1] 169
W[12,0,0] 101
W[12,0,1] 238
W[12,1,-1] 184
W[12,1,0] 233
W[12,1,1] 245
W[13,0,-1] 316
W[13,0,0] 22
W[13,0,1] 170
W[13,1,-1] 121
W[13,1,0] 263
W[13,1,1] 278
W[14,0,-1] 53
W[14,0,0] 154
W[14,0,1] 301
W[14,1,-1] 389
W[14,1,0] 108
W[14,1,1] 165
W[15,0,-1] 149
W[15,0,0] 79
W[15,0,1] 280
W[15,1,-1] 230
W[15,1,0] 298
W[15,1,1] 134
W[16,0,-1] 272
W[16,0,0] 0
W[16,0,1] 236
W[16,1,-1] 138
W[16,1,0] 373
W[16,1,1] 151
W[17,0,-1] 38
W[17,0,0] 128
W[17,0,1] 342
W[17,1,-1] 441
W[17,1,0] 157
W[17,1,1] 64
W[18,0,-1] 309
W[18,0,0] 40
W[18,0,1] 159
W[18,1,-1] 121
W[18,1,0] 316
W[18,1,1] 225
W[19,0,-1] 76
W[19,0,0] 200
W[19,0,1] 232
W[19,1,-1] 412
W[19,1,0] 92
W[19,1,1] 158
W[20,0,-1] 18
W[20,0,0] 72
W[20,0,1] 418
W[20,1,-1] 446
W[20,1,0] 167
W[20,1,1] 49
C[0,0] 216
C[0,1] 424
C[1,0] 256
C[1,1] 466
C[2,0] 213
C[2,1] 363
C[3,0] 309
C[3,1] 429
C[4,0] 134
C[4,1] 356
C[5,0] 183
C[5,1] 393
C[6,0] 313
C[6,1] 470
C[7,0] 258
C[7,1] 386
C[8,0] 354
C[8,1] 464
C[9,0] 160
C[9,1] 390
C[10,0] 234
C[10,1] 408
C[11,0] 445
C[11,1] 408
C[12,0] 439
C[12,1] 429
C[13,0] 362
C[13,1] 399
C[14,0] 260
C[14,1] 438
C[15,0] 377
C[15,1] 364
C[16,0] 472
C[16,1] 289
C[17,0] 204
C[17,1] 285
C[18,0] 358
C[18,1] 346
C[19,0] 308
C[19,1] 408
C[20,0] 108
C[20,1] 265
n[0,0] 1
n[0,1] 1
n[1,0] 1
n[1,1] 1
n[2,0] 0
n[2,1] 1
n[3,0] 0
n[3,1] 1
n[4,0] 1
n[4,1] 1
n[5,0] 0
n[5,1] 1
n[6,0] 1
n[6,1] 0
p[0,1,0] 0
p[0,1,1] 0
p[0,2,0] 0
p[0,2,1] 0
p[0,3,0] 0
p[0,3,1] 0
p[0,4,0] 0
p[0,4,1] 0
p[0,5,0] 0
p[0,5,1] 0
p[0,6,0] 0
p[0,6,1] 0
p[1,0,0] 0
p[1,0,1] 0
p[1,2,0] 0
p[1,2,1] 0
p[1,3,0] 0
p[1,3,1] 0
p[1,4,0] 0
p[1,4,1] 0
p[1,5,0] 0
p[1,5,1] 0
p[1,6,0] 0
p[1,6,1] 0
p[2,0,0] 1
p[2,0,1] 0
p[2,1,0] 1
p[2,1,1] 0
p[2,3,0] 0
p[2,3,1] 0
p[2,4,0] 1
p[2,4,1] 0
p[2,5,0] 0
p[2,5,1] 0
p[2,6,0] 1
p[2,6,1] 0
p[3,0,0] 1
p[3,0,1] 0
p[3,1,0] 1
p[3,1,1] 0
p[3,2,0] 1
p[3,2,1] 0
p[3,4,0] 1
p[3,4,1] 0
p[3,5,0] 0
p[3,5,1] 0
p[3,6,0] 1
p[3,6,1] 0
p[4,0,0] 0
p[4,0,1] 0
p[4,1,0] 0
p[4,1,1] 0
p[4,2,0] 0
p[4,2,1] 0
p[4,3,0] 0
p[4,3,1] 0
p[4,5,0] 0
p[4,5,1] 0
p[4,6,0] 0
p[4,6,1] 0
p[5,0,0] 1
p[5,0,1] 0
p[5,1,0] 1
p[5,1,1] 0
p[5,2,0] 1
p[5,2,1] 0
p[5,3,0] 1
p[5,3,1] 0
p[5,4,0] 1
p[5,4,1] 0
p[5,6,0] 1
p[5,6,1] 0
p[6,0,0] 0
p[6,0,1] 1
p[6,1,0] 0
p[6,1,1] 1
p[6,2,0] 0
p[6,2,1] 1
p[6,3,0] 0
p[6,3,1] 1
p[6,4,0] 0
p[6,4,1] 1
p[6,5,0] 0
p[6,5,1] 1
